Instances/N4.dat
data;
param numTeams := 4;

param dist := 
	1 1 0
	1 2 745
	1 3 665
	1 4 929
	2 1 745
	2 2 0
	2 3 80
	2 4 337
	3 1 665
	3 2 80
	3 3 0
	3 4 380
	4 1 929
	4 2 337
	4 3 380
	4 4 0
;

end;
