Instances/N4.out
Problem:    mTTP
Rows:       193
Columns:    292 (292 integer, 292 binary)
Non-zeros:  1836
Status:     INTEGER OPTIMAL
Objective:  totalTravelDist = 8276 (MINimum)

   No.   Row name        Activity     Lower bound   Upper bound
------ ------------    ------------- ------------- -------------
     1 totalTravelDist
                                8276                             
     2 flowConservation[1,1,1]
                                   0            -0             = 
     3 flowConservation[1,1,2]
                                   0            -0             = 
     4 flowConservation[1,1,3]
                                   0            -0             = 
     5 flowConservation[1,1,4]
                                   0            -0             = 
     6 flowConservation[1,1,5]
                                   0            -0             = 
     7 flowConservation[1,1,6]
                                   0            -0             = 
     8 flowConservation[1,2,1]
                                   0            -0             = 
     9 flowConservation[1,2,2]
                                   0            -0             = 
    10 flowConservation[1,2,3]
                                   0            -0             = 
    11 flowConservation[1,2,4]
                                   0            -0             = 
    12 flowConservation[1,2,5]
                                   0            -0             = 
    13 flowConservation[1,2,6]
                                   0            -0             = 
    14 flowConservation[1,3,1]
                                   0            -0             = 
    15 flowConservation[1,3,2]
                                   0            -0             = 
    16 flowConservation[1,3,3]
                                   0            -0             = 
    17 flowConservation[1,3,4]
                                   0            -0             = 
    18 flowConservation[1,3,5]
                                   0            -0             = 
    19 flowConservation[1,3,6]
                                   0            -0             = 
    20 flowConservation[1,4,1]
                                   0            -0             = 
    21 flowConservation[1,4,2]
                                   0            -0             = 
    22 flowConservation[1,4,3]
                                   0            -0             = 
    23 flowConservation[1,4,4]
                                   0            -0             = 
    24 flowConservation[1,4,5]
                                   0            -0             = 
    25 flowConservation[1,4,6]
                                   0            -0             = 
    26 flowConservation[2,1,1]
                                   0            -0             = 
    27 flowConservation[2,1,2]
                                   0            -0             = 
    28 flowConservation[2,1,3]
                                   0            -0             = 
    29 flowConservation[2,1,4]
                                   0            -0             = 
    30 flowConservation[2,1,5]
                                   0            -0             = 
    31 flowConservation[2,1,6]
                                   0            -0             = 
    32 flowConservation[2,2,1]
                                   0            -0             = 
    33 flowConservation[2,2,2]
                                   0            -0             = 
    34 flowConservation[2,2,3]
                                   0            -0             = 
    35 flowConservation[2,2,4]
                                   0            -0             = 
    36 flowConservation[2,2,5]
                                   0            -0             = 
    37 flowConservation[2,2,6]
                                   0            -0             = 
    38 flowConservation[2,3,1]
                                   0            -0             = 
    39 flowConservation[2,3,2]
                                   0            -0             = 
    40 flowConservation[2,3,3]
                                   0            -0             = 
    41 flowConservation[2,3,4]
                                   0            -0             = 
    42 flowConservation[2,3,5]
                                   0            -0             = 
    43 flowConservation[2,3,6]
                                   0            -0             = 
    44 flowConservation[2,4,1]
                                   0            -0             = 
    45 flowConservation[2,4,2]
                                   0            -0             = 
    46 flowConservation[2,4,3]
                                   0            -0             = 
    47 flowConservation[2,4,4]
                                   0            -0             = 
    48 flowConservation[2,4,5]
                                   0            -0             = 
    49 flowConservation[2,4,6]
                                   0            -0             = 
    50 flowConservation[3,1,1]
                                   0            -0             = 
    51 flowConservation[3,1,2]
                                   0            -0             = 
    52 flowConservation[3,1,3]
                                   0            -0             = 
    53 flowConservation[3,1,4]
                                   0            -0             = 
    54 flowConservation[3,1,5]
                                   0            -0             = 
    55 flowConservation[3,1,6]
                                   0            -0             = 
    56 flowConservation[3,2,1]
                                   0            -0             = 
    57 flowConservation[3,2,2]
                                   0            -0             = 
    58 flowConservation[3,2,3]
                                   0            -0             = 
    59 flowConservation[3,2,4]
                                   0            -0             = 
    60 flowConservation[3,2,5]
                                   0            -0             = 
    61 flowConservation[3,2,6]
                                   0            -0             = 
    62 flowConservation[3,3,1]
                                   0            -0             = 
    63 flowConservation[3,3,2]
                                   0            -0             = 
    64 flowConservation[3,3,3]
                                   0            -0             = 
    65 flowConservation[3,3,4]
                                   0            -0             = 
    66 flowConservation[3,3,5]
                                   0            -0             = 
    67 flowConservation[3,3,6]
                                   0            -0             = 
    68 flowConservation[3,4,1]
                                   0            -0             = 
    69 flowConservation[3,4,2]
                                   0            -0             = 
    70 flowConservation[3,4,3]
                                   0            -0             = 
    71 flowConservation[3,4,4]
                                   0            -0             = 
    72 flowConservation[3,4,5]
                                   0            -0             = 
    73 flowConservation[3,4,6]
                                   0            -0             = 
    74 flowConservation[4,1,1]
                                   0            -0             = 
    75 flowConservation[4,1,2]
                                   0            -0             = 
    76 flowConservation[4,1,3]
                                   0            -0             = 
    77 flowConservation[4,1,4]
                                   0            -0             = 
    78 flowConservation[4,1,5]
                                   0            -0             = 
    79 flowConservation[4,1,6]
                                   0            -0             = 
    80 flowConservation[4,2,1]
                                   0            -0             = 
    81 flowConservation[4,2,2]
                                   0            -0             = 
    82 flowConservation[4,2,3]
                                   0            -0             = 
    83 flowConservation[4,2,4]
                                   0            -0             = 
    84 flowConservation[4,2,5]
                                   0            -0             = 
    85 flowConservation[4,2,6]
                                   0            -0             = 
    86 flowConservation[4,3,1]
                                   0            -0             = 
    87 flowConservation[4,3,2]
                                   0            -0             = 
    88 flowConservation[4,3,3]
                                   0            -0             = 
    89 flowConservation[4,3,4]
                                   0            -0             = 
    90 flowConservation[4,3,5]
                                   0            -0             = 
    91 flowConservation[4,3,6]
                                   0            -0             = 
    92 flowConservation[4,4,1]
                                   0            -0             = 
    93 flowConservation[4,4,2]
                                   0            -0             = 
    94 flowConservation[4,4,3]
                                   0            -0             = 
    95 flowConservation[4,4,4]
                                   0            -0             = 
    96 flowConservation[4,4,5]
                                   0            -0             = 
    97 flowConservation[4,4,6]
                                   0            -0             = 
    98 confrontAllOpponents[1,2]
                                   1             1             = 
    99 confrontAllOpponents[1,3]
                                   1             1             = 
   100 confrontAllOpponents[1,4]
                                   1             1             = 
   101 confrontAllOpponents[2,1]
                                   1             1             = 
   102 confrontAllOpponents[2,3]
                                   1             1             = 
   103 confrontAllOpponents[2,4]
                                   1             1             = 
   104 confrontAllOpponents[3,1]
                                   1             1             = 
   105 confrontAllOpponents[3,2]
                                   1             1             = 
   106 confrontAllOpponents[3,4]
                                   1             1             = 
   107 confrontAllOpponents[4,1]
                                   1             1             = 
   108 confrontAllOpponents[4,2]
                                   1             1             = 
   109 confrontAllOpponents[4,3]
                                   1             1             = 
   110 linkFlows[1,1]
                                   1             1             = 
   111 linkFlows[1,2]
                                   1             1             = 
   112 linkFlows[1,3]
                                   1             1             = 
   113 linkFlows[1,4]
                                   1             1             = 
   114 linkFlows[1,5]
                                   1             1             = 
   115 linkFlows[1,6]
                                   1             1             = 
   116 linkFlows[2,1]
                                   1             1             = 
   117 linkFlows[2,2]
                                   1             1             = 
   118 linkFlows[2,3]
                                   1             1             = 
   119 linkFlows[2,4]
                                   1             1             = 
   120 linkFlows[2,5]
                                   1             1             = 
   121 linkFlows[2,6]
                                   1             1             = 
   122 linkFlows[3,1]
                                   1             1             = 
   123 linkFlows[3,2]
                                   1             1             = 
   124 linkFlows[3,3]
                                   1             1             = 
   125 linkFlows[3,4]
                                   1             1             = 
   126 linkFlows[3,5]
                                   1             1             = 
   127 linkFlows[3,6]
                                   1             1             = 
   128 linkFlows[4,1]
                                   1             1             = 
   129 linkFlows[4,2]
                                   1             1             = 
   130 linkFlows[4,3]
                                   1             1             = 
   131 linkFlows[4,4]
                                   1             1             = 
   132 linkFlows[4,5]
                                   1             1             = 
   133 linkFlows[4,6]
                                   1             1             = 
   134 boundAwayMatches[1,1]
                                   0                           2 
   135 boundAwayMatches[1,2]
                                   1                           2 
   136 boundAwayMatches[1,3]
                                   2                           2 
   137 boundAwayMatches[2,1]
                                   2                           2 
   138 boundAwayMatches[2,2]
                                   2                           2 
   139 boundAwayMatches[2,3]
                                   1                           2 
   140 boundAwayMatches[3,1]
                                   0                           2 
   141 boundAwayMatches[3,2]
                                   0                           2 
   142 boundAwayMatches[3,3]
                                   1                           2 
   143 boundAwayMatches[4,1]
                                   2                           2 
   144 boundAwayMatches[4,2]
                                   1                           2 
   145 boundAwayMatches[4,3]
                                   0                           2 
   146 boundHomeMatches[1,1]
                                   2                           2 
   147 boundHomeMatches[1,2]
                                   1                           2 
   148 boundHomeMatches[1,3]
                                   0                           2 
   149 boundHomeMatches[2,1]
                                   0                           2 
   150 boundHomeMatches[2,2]
                                   0                           2 
   151 boundHomeMatches[2,3]
                                   1                           2 
   152 boundHomeMatches[3,1]
                                   2                           2 
   153 boundHomeMatches[3,2]
                                   2                           2 
   154 boundHomeMatches[3,3]
                                   1                           2 
   155 boundHomeMatches[4,1]
                                   0                           2 
   156 boundHomeMatches[4,2]
                                   1                           2 
   157 boundHomeMatches[4,3]
                                   2                           2 
   158 mirroredGames[1,2,0]
                                   0            -0             = 
   159 mirroredGames[1,2,1]
                                   0            -0             = 
   160 mirroredGames[1,2,2]
                                   0            -0             = 
   161 mirroredGames[1,3,0]
                                   0            -0             = 
   162 mirroredGames[1,3,1]
                                   0            -0             = 
   163 mirroredGames[1,3,2]
                                   0            -0             = 
   164 mirroredGames[1,4,0]
                                   0            -0             = 
   165 mirroredGames[1,4,1]
                                   0            -0             = 
   166 mirroredGames[1,4,2]
                                   0            -0             = 
   167 mirroredGames[2,1,0]
                                   0            -0             = 
   168 mirroredGames[2,1,1]
                                   0            -0             = 
   169 mirroredGames[2,1,2]
                                   0            -0             = 
   170 mirroredGames[2,3,0]
                                   0            -0             = 
   171 mirroredGames[2,3,1]
                                   0            -0             = 
   172 mirroredGames[2,3,2]
                                   0            -0             = 
   173 mirroredGames[2,4,0]
                                   0            -0             = 
   174 mirroredGames[2,4,1]
                                   0            -0             = 
   175 mirroredGames[2,4,2]
                                   0            -0             = 
   176 mirroredGames[3,1,0]
                                   0            -0             = 
   177 mirroredGames[3,1,1]
                                   0            -0             = 
   178 mirroredGames[3,1,2]
                                   0            -0             = 
   179 mirroredGames[3,2,0]
                                   0            -0             = 
   180 mirroredGames[3,2,1]
                                   0            -0             = 
   181 mirroredGames[3,2,2]
                                   0            -0             = 
   182 mirroredGames[3,4,0]
                                   0            -0             = 
   183 mirroredGames[3,4,1]
                                   0            -0             = 
   184 mirroredGames[3,4,2]
                                   0            -0             = 
   185 mirroredGames[4,1,0]
                                   0            -0             = 
   186 mirroredGames[4,1,1]
                                   0            -0             = 
   187 mirroredGames[4,1,2]
                                   0            -0             = 
   188 mirroredGames[4,2,0]
                                   0            -0             = 
   189 mirroredGames[4,2,1]
                                   0            -0             = 
   190 mirroredGames[4,2,2]
                                   0            -0             = 
   191 mirroredGames[4,3,0]
                                   0            -0             = 
   192 mirroredGames[4,3,1]
                                   0            -0             = 
   193 mirroredGames[4,3,2]
                                   0            -0             = 

   No. Column name       Activity     Lower bound   Upper bound
------ ------------    ------------- ------------- -------------
     1 x[1,1,1,0]   *              1             0             1 
     2 x[1,1,2,0]   *              0             0             1 
     3 x[1,1,3,0]   *              0             0             1 
     4 x[1,1,4,0]   *              0             0             1 
     5 x[1,1,1,6]   *              0             0             1 
     6 x[1,2,1,6]   *              0             0             1 
     7 x[1,3,1,6]   *              0             0             1 
     8 x[1,4,1,6]   *              1             0             1 
     9 x[1,1,2,1]   *              0             0             1 
    10 x[1,1,2,2]   *              0             0             1 
    11 x[1,1,2,3]   *              0             0             1 
    12 x[1,1,2,4]   *              0             0             1 
    13 x[1,1,2,5]   *              0             0             1 
    14 x[1,1,3,1]   *              0             0             1 
    15 x[1,1,3,2]   *              0             0             1 
    16 x[1,1,3,3]   *              1             0             1 
    17 x[1,1,3,4]   *              0             0             1 
    18 x[1,1,3,5]   *              0             0             1 
    19 x[1,1,4,1]   *              0             0             1 
    20 x[1,1,4,2]   *              0             0             1 
    21 x[1,1,4,3]   *              0             0             1 
    22 x[1,1,4,4]   *              0             0             1 
    23 x[1,1,4,5]   *              0             0             1 
    24 x[1,2,1,1]   *              0             0             1 
    25 x[1,2,1,2]   *              0             0             1 
    26 x[1,2,1,3]   *              0             0             1 
    27 x[1,2,1,4]   *              0             0             1 
    28 x[1,2,1,5]   *              0             0             1 
    29 x[1,2,3,1]   *              0             0             1 
    30 x[1,2,3,2]   *              0             0             1 
    31 x[1,2,3,3]   *              0             0             1 
    32 x[1,2,3,4]   *              0             0             1 
    33 x[1,2,3,5]   *              0             0             1 
    34 x[1,2,4,1]   *              0             0             1 
    35 x[1,2,4,2]   *              0             0             1 
    36 x[1,2,4,3]   *              0             0             1 
    37 x[1,2,4,4]   *              0             0             1 
    38 x[1,2,4,5]   *              1             0             1 
    39 x[1,3,1,1]   *              0             0             1 
    40 x[1,3,1,2]   *              0             0             1 
    41 x[1,3,1,3]   *              0             0             1 
    42 x[1,3,1,4]   *              0             0             1 
    43 x[1,3,1,5]   *              0             0             1 
    44 x[1,3,2,1]   *              0             0             1 
    45 x[1,3,2,2]   *              0             0             1 
    46 x[1,3,2,3]   *              0             0             1 
    47 x[1,3,2,4]   *              1             0             1 
    48 x[1,3,2,5]   *              0             0             1 
    49 x[1,3,4,1]   *              0             0             1 
    50 x[1,3,4,2]   *              0             0             1 
    51 x[1,3,4,3]   *              0             0             1 
    52 x[1,3,4,4]   *              0             0             1 
    53 x[1,3,4,5]   *              0             0             1 
    54 x[1,4,1,1]   *              0             0             1 
    55 x[1,4,1,2]   *              0             0             1 
    56 x[1,4,1,3]   *              0             0             1 
    57 x[1,4,1,4]   *              0             0             1 
    58 x[1,4,1,5]   *              0             0             1 
    59 x[1,4,2,1]   *              0             0             1 
    60 x[1,4,2,2]   *              0             0             1 
    61 x[1,4,2,3]   *              0             0             1 
    62 x[1,4,2,4]   *              0             0             1 
    63 x[1,4,2,5]   *              0             0             1 
    64 x[1,4,3,1]   *              0             0             1 
    65 x[1,4,3,2]   *              0             0             1 
    66 x[1,4,3,3]   *              0             0             1 
    67 x[1,4,3,4]   *              0             0             1 
    68 x[1,4,3,5]   *              0             0             1 
    69 x[1,1,1,1]   *              1             0             1 
    70 x[1,1,1,2]   *              1             0             1 
    71 x[1,1,1,3]   *              0             0             1 
    72 x[1,1,1,4]   *              0             0             1 
    73 x[1,1,1,5]   *              0             0             1 
    74 x[2,2,1,0]   *              0             0             1 
    75 x[2,2,2,0]   *              1             0             1 
    76 x[2,2,3,0]   *              0             0             1 
    77 x[2,2,4,0]   *              0             0             1 
    78 x[2,1,2,6]   *              0             0             1 
    79 x[2,2,2,6]   *              1             0             1 
    80 x[2,3,2,6]   *              0             0             1 
    81 x[2,4,2,6]   *              0             0             1 
    82 x[2,1,2,1]   *              0             0             1 
    83 x[2,1,2,2]   *              0             0             1 
    84 x[2,1,2,3]   *              0             0             1 
    85 x[2,1,2,4]   *              0             0             1 
    86 x[2,1,2,5]   *              0             0             1 
    87 x[2,1,3,1]   *              0             0             1 
    88 x[2,1,3,2]   *              1             0             1 
    89 x[2,1,3,3]   *              0             0             1 
    90 x[2,1,3,4]   *              0             0             1 
    91 x[2,1,3,5]   *              0             0             1 
    92 x[2,1,4,1]   *              0             0             1 
    93 x[2,1,4,2]   *              0             0             1 
    94 x[2,1,4,3]   *              0             0             1 
    95 x[2,1,4,4]   *              0             0             1 
    96 x[2,1,4,5]   *              0             0             1 
    97 x[2,2,1,1]   *              1             0             1 
    98 x[2,2,1,2]   *              0             0             1 
    99 x[2,2,1,3]   *              0             0             1 
   100 x[2,2,1,4]   *              0             0             1 
   101 x[2,2,1,5]   *              0             0             1 
   102 x[2,2,3,1]   *              0             0             1 
   103 x[2,2,3,2]   *              0             0             1 
   104 x[2,2,3,3]   *              0             0             1 
   105 x[2,2,3,4]   *              0             0             1 
   106 x[2,2,3,5]   *              0             0             1 
   107 x[2,2,4,1]   *              0             0             1 
   108 x[2,2,4,2]   *              0             0             1 
   109 x[2,2,4,3]   *              0             0             1 
   110 x[2,2,4,4]   *              0             0             1 
   111 x[2,2,4,5]   *              0             0             1 
   112 x[2,3,1,1]   *              0             0             1 
   113 x[2,3,1,2]   *              0             0             1 
   114 x[2,3,1,3]   *              0             0             1 
   115 x[2,3,1,4]   *              0             0             1 
   116 x[2,3,1,5]   *              0             0             1 
   117 x[2,3,2,1]   *              0             0             1 
   118 x[2,3,2,2]   *              0             0             1 
   119 x[2,3,2,3]   *              0             0             1 
   120 x[2,3,2,4]   *              0             0             1 
   121 x[2,3,2,5]   *              0             0             1 
   122 x[2,3,4,1]   *              0             0             1 
   123 x[2,3,4,2]   *              0             0             1 
   124 x[2,3,4,3]   *              1             0             1 
   125 x[2,3,4,4]   *              0             0             1 
   126 x[2,3,4,5]   *              0             0             1 
   127 x[2,4,1,1]   *              0             0             1 
   128 x[2,4,1,2]   *              0             0             1 
   129 x[2,4,1,3]   *              0             0             1 
   130 x[2,4,1,4]   *              0             0             1 
   131 x[2,4,1,5]   *              0             0             1 
   132 x[2,4,2,1]   *              0             0             1 
   133 x[2,4,2,2]   *              0             0             1 
   134 x[2,4,2,3]   *              0             0             1 
   135 x[2,4,2,4]   *              1             0             1 
   136 x[2,4,2,5]   *              0             0             1 
   137 x[2,4,3,1]   *              0             0             1 
   138 x[2,4,3,2]   *              0             0             1 
   139 x[2,4,3,3]   *              0             0             1 
   140 x[2,4,3,4]   *              0             0             1 
   141 x[2,4,3,5]   *              0             0             1 
   142 x[2,2,2,1]   *              0             0             1 
   143 x[2,2,2,2]   *              0             0             1 
   144 x[2,2,2,3]   *              0             0             1 
   145 x[2,2,2,4]   *              0             0             1 
   146 x[2,2,2,5]   *              1             0             1 
   147 x[3,3,1,0]   *              1             0             1 
   148 x[3,3,2,0]   *              0             0             1 
   149 x[3,3,3,0]   *              0             0             1 
   150 x[3,3,4,0]   *              0             0             1 
   151 x[3,1,3,6]   *              0             0             1 
   152 x[3,2,3,6]   *              1             0             1 
   153 x[3,3,3,6]   *              0             0             1 
   154 x[3,4,3,6]   *              0             0             1 
   155 x[3,1,2,1]   *              0             0             1 
   156 x[3,1,2,2]   *              0             0             1 
   157 x[3,1,2,3]   *              0             0             1 
   158 x[3,1,2,4]   *              0             0             1 
   159 x[3,1,2,5]   *              0             0             1 
   160 x[3,1,3,1]   *              1             0             1 
   161 x[3,1,3,2]   *              0             0             1 
   162 x[3,1,3,3]   *              0             0             1 
   163 x[3,1,3,4]   *              0             0             1 
   164 x[3,1,3,5]   *              0             0             1 
   165 x[3,1,4,1]   *              0             0             1 
   166 x[3,1,4,2]   *              0             0             1 
   167 x[3,1,4,3]   *              0             0             1 
   168 x[3,1,4,4]   *              0             0             1 
   169 x[3,1,4,5]   *              0             0             1 
   170 x[3,2,1,1]   *              0             0             1 
   171 x[3,2,1,2]   *              0             0             1 
   172 x[3,2,1,3]   *              0             0             1 
   173 x[3,2,1,4]   *              0             0             1 
   174 x[3,2,1,5]   *              0             0             1 
   175 x[3,2,3,1]   *              0             0             1 
   176 x[3,2,3,2]   *              0             0             1 
   177 x[3,2,3,3]   *              0             0             1 
   178 x[3,2,3,4]   *              0             0             1 
   179 x[3,2,3,5]   *              0             0             1 
   180 x[3,2,4,1]   *              0             0             1 
   181 x[3,2,4,2]   *              0             0             1 
   182 x[3,2,4,3]   *              0             0             1 
   183 x[3,2,4,4]   *              0             0             1 
   184 x[3,2,4,5]   *              0             0             1 
   185 x[3,3,1,1]   *              0             0             1 
   186 x[3,3,1,2]   *              0             0             1 
   187 x[3,3,1,3]   *              0             0             1 
   188 x[3,3,1,4]   *              0             0             1 
   189 x[3,3,1,5]   *              0             0             1 
   190 x[3,3,2,1]   *              0             0             1 
   191 x[3,3,2,2]   *              0             0             1 
   192 x[3,3,2,3]   *              0             0             1 
   193 x[3,3,2,4]   *              0             0             1 
   194 x[3,3,2,5]   *              0             0             1 
   195 x[3,3,4,1]   *              0             0             1 
   196 x[3,3,4,2]   *              0             0             1 
   197 x[3,3,4,3]   *              0             0             1 
   198 x[3,3,4,4]   *              1             0             1 
   199 x[3,3,4,5]   *              0             0             1 
   200 x[3,4,1,1]   *              0             0             1 
   201 x[3,4,1,2]   *              0             0             1 
   202 x[3,4,1,3]   *              0             0             1 
   203 x[3,4,1,4]   *              0             0             1 
   204 x[3,4,1,5]   *              0             0             1 
   205 x[3,4,2,1]   *              0             0             1 
   206 x[3,4,2,2]   *              0             0             1 
   207 x[3,4,2,3]   *              0             0             1 
   208 x[3,4,2,4]   *              0             0             1 
   209 x[3,4,2,5]   *              1             0             1 
   210 x[3,4,3,1]   *              0             0             1 
   211 x[3,4,3,2]   *              0             0             1 
   212 x[3,4,3,3]   *              0             0             1 
   213 x[3,4,3,4]   *              0             0             1 
   214 x[3,4,3,5]   *              0             0             1 
   215 x[3,3,3,1]   *              0             0             1 
   216 x[3,3,3,2]   *              1             0             1 
   217 x[3,3,3,3]   *              1             0             1 
   218 x[3,3,3,4]   *              0             0             1 
   219 x[3,3,3,5]   *              0             0             1 
   220 x[4,4,1,0]   *              0             0             1 
   221 x[4,4,2,0]   *              1             0             1 
   222 x[4,4,3,0]   *              0             0             1 
   223 x[4,4,4,0]   *              0             0             1 
   224 x[4,1,4,6]   *              0             0             1 
   225 x[4,2,4,6]   *              0             0             1 
   226 x[4,3,4,6]   *              0             0             1 
   227 x[4,4,4,6]   *              1             0             1 
   228 x[4,1,2,1]   *              0             0             1 
   229 x[4,1,2,2]   *              0             0             1 
   230 x[4,1,2,3]   *              0             0             1 
   231 x[4,1,2,4]   *              0             0             1 
   232 x[4,1,2,5]   *              0             0             1 
   233 x[4,1,3,1]   *              0             0             1 
   234 x[4,1,3,2]   *              0             0             1 
   235 x[4,1,3,3]   *              0             0             1 
   236 x[4,1,3,4]   *              0             0             1 
   237 x[4,1,3,5]   *              0             0             1 
   238 x[4,1,4,1]   *              0             0             1 
   239 x[4,1,4,2]   *              0             0             1 
   240 x[4,1,4,3]   *              1             0             1 
   241 x[4,1,4,4]   *              0             0             1 
   242 x[4,1,4,5]   *              0             0             1 
   243 x[4,2,1,1]   *              0             0             1 
   244 x[4,2,1,2]   *              0             0             1 
   245 x[4,2,1,3]   *              0             0             1 
   246 x[4,2,1,4]   *              0             0             1 
   247 x[4,2,1,5]   *              0             0             1 
   248 x[4,2,3,1]   *              1             0             1 
   249 x[4,2,3,2]   *              0             0             1 
   250 x[4,2,3,3]   *              0             0             1 
   251 x[4,2,3,4]   *              0             0             1 
   252 x[4,2,3,5]   *              0             0             1 
   253 x[4,2,4,1]   *              0             0             1 
   254 x[4,2,4,2]   *              0             0             1 
   255 x[4,2,4,3]   *              0             0             1 
   256 x[4,2,4,4]   *              0             0             1 
   257 x[4,2,4,5]   *              0             0             1 
   258 x[4,3,1,1]   *              0             0             1 
   259 x[4,3,1,2]   *              1             0             1 
   260 x[4,3,1,3]   *              0             0             1 
   261 x[4,3,1,4]   *              0             0             1 
   262 x[4,3,1,5]   *              0             0             1 
   263 x[4,3,2,1]   *              0             0             1 
   264 x[4,3,2,2]   *              0             0             1 
   265 x[4,3,2,3]   *              0             0             1 
   266 x[4,3,2,4]   *              0             0             1 
   267 x[4,3,2,5]   *              0             0             1 
   268 x[4,3,4,1]   *              0             0             1 
   269 x[4,3,4,2]   *              0             0             1 
   270 x[4,3,4,3]   *              0             0             1 
   271 x[4,3,4,4]   *              0             0             1 
   272 x[4,3,4,5]   *              0             0             1 
   273 x[4,4,1,1]   *              0             0             1 
   274 x[4,4,1,2]   *              0             0             1 
   275 x[4,4,1,3]   *              0             0             1 
   276 x[4,4,1,4]   *              0             0             1 
   277 x[4,4,1,5]   *              0             0             1 
   278 x[4,4,2,1]   *              0             0             1 
   279 x[4,4,2,2]   *              0             0             1 
   280 x[4,4,2,3]   *              0             0             1 
   281 x[4,4,2,4]   *              0             0             1 
   282 x[4,4,2,5]   *              0             0             1 
   283 x[4,4,3,1]   *              0             0             1 
   284 x[4,4,3,2]   *              0             0             1 
   285 x[4,4,3,3]   *              0             0             1 
   286 x[4,4,3,4]   *              0             0             1 
   287 x[4,4,3,5]   *              0             0             1 
   288 x[4,4,4,1]   *              0             0             1 
   289 x[4,4,4,2]   *              0             0             1 
   290 x[4,4,4,3]   *              0             0             1 
   291 x[4,4,4,4]   *              1             0             1 
   292 x[4,4,4,5]   *              1             0             1 

Integer feasibility conditions:

KKT.PE: max.abs.err = 0.00e+00 on row 0
        max.rel.err = 0.00e+00 on row 0
        High quality

KKT.PB: max.abs.err = 0.00e+00 on row 0
        max.rel.err = 0.00e+00 on row 0
        High quality

End of output
